25° run output:
{
    "Function": "euclidA500.tsp",
    "Problem dimension": [
        346,
        425,
        293,
        484,
        227,
        33,
        88,
        333,
        458,
        298,
        78,
        368,
        470,
        379,
        19,
        175,
        96,
        372,
        352,
        388,
        200,
        355,
        14,
        307,
        196,
        353,
        383,
        358,
        28,
        420,
        471,
        405,
        359,
        344,
        480,
        184,
        264,
        1,
        366,
        329,
        436,
        380,
        6,
        4,
        434,
        272,
        462,
        335,
        105,
        457,
        320,
        60,
        12,
        198,
        268,
        402,
        7,
        297,
        193,
        363,
        189,
        13,
        44,
        25,
        20,
        448,
        3,
        202,
        132,
        141,
        215,
        108,
        181,
        24,
        382,
        224,
        362,
        275,
        273,
        441,
        136,
        126,
        416,
        74,
        421,
        153,
        391,
        456,
        180,
        206,
        229,
        494,
        203,
        159,
        469,
        356,
        119,
        71,
        487,
        173,
        115,
        467,
        271,
        283,
        139,
        161,
        239,
        409,
        185,
        87,
        317,
        396,
        56,
        330,
        400,
        166,
        70,
        210,
        213,
        439,
        110,
        475,
        490,
        220,
        284,
        278,
        274,
        259,
        387,
        477,
        192,
        112,
        281,
        261,
        137,
        82,
        305,
        94,
        157,
        27,
        191,
        498,
        106,
        300,
        473,
        176,
        476,
        146,
        93,
        316,
        415,
        183,
        122,
        111,
        347,
        479,
        190,
        460,
        172,
        443,
        69,
        394,
        432,
        349,
        430,
        295,
        95,
        125,
        32,
        0,
        129,
        452,
        364,
        242,
        228,
        244,
        327,
        145,
        11,
        79,
        378,
        249,
        232,
        89,
        201,
        158,
        489,
        419,
        350,
        97,
        246,
        449,
        207,
        289,
        18,
        428,
        103,
        50,
        370,
        149,
        138,
        113,
        144,
        412,
        322,
        36,
        90,
        23,
        43,
        292,
        367,
        319,
        472,
        410,
        491,
        326,
        401,
        403,
        348,
        361,
        53,
        186,
        354,
        422,
        499,
        147,
        328,
        279,
        171,
        243,
        395,
        381,
        474,
        423,
        258,
        34,
        488,
        336,
        151,
        38,
        179,
        444,
        377,
        257,
        323,
        245,
        83,
        371,
        85,
        276,
        58,
        256,
        10,
        118,
        311,
        76,
        40,
        39,
        57,
        265,
        386,
        167,
        187,
        221,
        51,
        318,
        301,
        384,
        225,
        101,
        91,
        310,
        109,
        466,
        247,
        123,
        195,
        42,
        343,
        424,
        304,
        331,
        435,
        140,
        485,
        492,
        120,
        211,
        81,
        98,
        337,
        128,
        102,
        8,
        142,
        26,
        154,
        30,
        468,
        253,
        86,
        342,
        73,
        254,
        75,
        205,
        450,
        160,
        59,
        321,
        290,
        339,
        266,
        338,
        287,
        55,
        440,
        315,
        291,
        77,
        131,
        117,
        252,
        455,
        148,
        459,
        334,
        219,
        427,
        251,
        107,
        156,
        72,
        116,
        360,
        61,
        340,
        31,
        399,
        199,
        209,
        280,
        152,
        37,
        231,
        375,
        46,
        357,
        332,
        446,
        80,
        92,
        302,
        65,
        238,
        52,
        62,
        66,
        482,
        262,
        143,
        393,
        155,
        177,
        204,
        493,
        127,
        162,
        240,
        114,
        447,
        454,
        417,
        376,
        270,
        299,
        453,
        437,
        223,
        121,
        212,
        35,
        234,
        15,
        22,
        174,
        48,
        217,
        294,
        260,
        451,
        390,
        486,
        385,
        306,
        431,
        104,
        267,
        496,
        233,
        2,
        325,
        389,
        465,
        248,
        164,
        308,
        250,
        309,
        54,
        464,
        269,
        282,
        124,
        414,
        429,
        237,
        135,
        216,
        497,
        296,
        286,
        230,
        345,
        84,
        406,
        312,
        9,
        263,
        222,
        418,
        351,
        411,
        341,
        313,
        413,
        68,
        495,
        226,
        178,
        365,
        29,
        214,
        235,
        133,
        408,
        41,
        134,
        407,
        426,
        170,
        49,
        188,
        303,
        445,
        277,
        374,
        5,
        182,
        197,
        100,
        463,
        433,
        369,
        165,
        47,
        63,
        404,
        208,
        64,
        314,
        398,
        285,
        483,
        169,
        16,
        168,
        163,
        218,
        45,
        478,
        397,
        373,
        288,
        130,
        481,
        194,
        461,
        150,
        241,
        255,
        99,
        21,
        17,
        236,
        442,
        392,
        324,
        67,
        438
    ],
    "Global Optimum": 0,
    "Algorithm": "Genetic algorithm",
    "Parameters": {
        "population": 30,
        "offspring": 30,
        "mutation probability": 0.002,
        "crossover probability": 0.9
    },
    "Fitness": 608073,
    "Solution": [
        346,
        425,
        293,
        484,
        227,
        33,
        88,
        333,
        458,
        298,
        78,
        368,
        470,
        379,
        19,
        175,
        96,
        372,
        352,
        388,
        200,
        355,
        14,
        307,
        196,
        353,
        383,
        358,
        28,
        420,
        471,
        405,
        359,
        344,
        480,
        184,
        264,
        1,
        366,
        329,
        436,
        380,
        6,
        4,
        434,
        272,
        462,
        335,
        105,
        457,
        320,
        60,
        12,
        198,
        268,
        402,
        7,
        297,
        193,
        363,
        189,
        13,
        44,
        25,
        20,
        448,
        3,
        202,
        132,
        141,
        215,
        108,
        181,
        24,
        382,
        224,
        362,
        275,
        273,
        441,
        136,
        126,
        416,
        74,
        421,
        153,
        391,
        456,
        180,
        206,
        229,
        494,
        203,
        159,
        469,
        356,
        119,
        71,
        487,
        173,
        115,
        467,
        271,
        283,
        139,
        161,
        239,
        409,
        185,
        87,
        317,
        396,
        56,
        330,
        400,
        166,
        70,
        210,
        213,
        439,
        110,
        475,
        490,
        220,
        284,
        278,
        274,
        259,
        387,
        477,
        192,
        112,
        281,
        261,
        137,
        82,
        305,
        94,
        157,
        27,
        191,
        498,
        106,
        300,
        473,
        176,
        476,
        146,
        93,
        316,
        415,
        183,
        122,
        111,
        347,
        479,
        190,
        460,
        172,
        443,
        69,
        394,
        432,
        349,
        430,
        295,
        95,
        125,
        32,
        0,
        129,
        452,
        364,
        242,
        228,
        244,
        327,
        145,
        11,
        79,
        378,
        249,
        232,
        89,
        201,
        158,
        489,
        419,
        350,
        97,
        246,
        449,
        207,
        289,
        18,
        428,
        103,
        50,
        370,
        149,
        138,
        113,
        144,
        412,
        322,
        36,
        90,
        23,
        43,
        292,
        367,
        319,
        472,
        410,
        491,
        326,
        401,
        403,
        348,
        361,
        53,
        186,
        354,
        422,
        499,
        147,
        328,
        279,
        171,
        243,
        395,
        381,
        474,
        423,
        258,
        34,
        488,
        336,
        151,
        38,
        179,
        444,
        377,
        257,
        323,
        245,
        83,
        371,
        85,
        276,
        58,
        256,
        10,
        118,
        311,
        76,
        40,
        39,
        57,
        265,
        386,
        167,
        187,
        221,
        51,
        318,
        301,
        384,
        225,
        101,
        91,
        310,
        109,
        466,
        247,
        123,
        195,
        42,
        343,
        424,
        304,
        331,
        435,
        140,
        485,
        492,
        120,
        211,
        81,
        98,
        337,
        128,
        102,
        8,
        142,
        26,
        154,
        30,
        468,
        253,
        86,
        342,
        73,
        254,
        75,
        205,
        450,
        160,
        59,
        321,
        290,
        339,
        266,
        338,
        287,
        55,
        440,
        315,
        291,
        77,
        131,
        117,
        252,
        455,
        148,
        459,
        334,
        219,
        427,
        251,
        107,
        156,
        72,
        116,
        360,
        61,
        340,
        31,
        399,
        199,
        209,
        280,
        152,
        37,
        231,
        375,
        46,
        357,
        332,
        446,
        80,
        92,
        302,
        65,
        238,
        52,
        62,
        66,
        482,
        262,
        143,
        393,
        155,
        177,
        204,
        493,
        127,
        162,
        240,
        114,
        447,
        454,
        417,
        376,
        270,
        299,
        453,
        437,
        223,
        121,
        212,
        35,
        234,
        15,
        22,
        174,
        48,
        217,
        294,
        260,
        451,
        390,
        486,
        385,
        306,
        431,
        104,
        267,
        496,
        233,
        2,
        325,
        389,
        465,
        248,
        164,
        308,
        250,
        309,
        54,
        464,
        269,
        282,
        124,
        414,
        429,
        237,
        135,
        216,
        497,
        296,
        286,
        230,
        345,
        84,
        406,
        312,
        9,
        263,
        222,
        418,
        351,
        411,
        341,
        313,
        413,
        68,
        495,
        226,
        178,
        365,
        29,
        214,
        235,
        133,
        408,
        41,
        134,
        407,
        426,
        170,
        49,
        188,
        303,
        445,
        277,
        374,
        5,
        182,
        197,
        100,
        463,
        433,
        369,
        165,
        47,
        63,
        404,
        208,
        64,
        314,
        398,
        285,
        483,
        169,
        16,
        168,
        163,
        218,
        45,
        478,
        397,
        373,
        288,
        130,
        481,
        194,
        461,
        150,
        241,
        255,
        99,
        21,
        17,
        236,
        442,
        392,
        324,
        67,
        438
    ],
    "Nb of functions evaluations": 200010,
    "Computational time in seconds": 1028.2173864841461,
    "Stopping criterion in evaluations": 200000
}